(set-info :smt-lib-version 2.6)
(set-info :category "crafted")
(set-logic QF_FF)
(define-sort FF0 () (_ FiniteField 52435875175126190479447740508185965837690552500527637822603658699938581184513))
(declare-fun x11 () Bool)
(declare-fun x10 () Bool)
(declare-fun x9 () Bool)
(declare-fun x8 () Bool)
(declare-fun x7 () Bool)
(declare-fun x6 () Bool)
(declare-fun x5 () Bool)
(declare-fun x4 () Bool)
(declare-fun x3 () Bool)
(declare-fun x2 () Bool)
(declare-fun x1 () Bool)
(declare-fun x0 () Bool)
(declare-fun return_n10 () FF0)
(declare-fun x11_n3 () FF0)
(declare-fun mul_n22 () FF0)
(declare-fun x10_n5 () FF0)
(declare-fun mul_n21 () FF0)
(declare-fun x9_n12 () FF0)
(declare-fun mul_n20 () FF0)
(declare-fun x8_n1 () FF0)
(declare-fun mul_n19 () FF0)
(declare-fun x7_n7 () FF0)
(declare-fun mul_n18 () FF0)
(declare-fun x6_n8 () FF0)
(declare-fun mul_n17 () FF0)
(declare-fun x5_n0 () FF0)
(declare-fun mul_n16 () FF0)
(declare-fun x4_n2 () FF0)
(declare-fun mul_n15 () FF0)
(declare-fun x3_n9 () FF0)
(declare-fun mul_n14 () FF0)
(declare-fun x2_n11 () FF0)
(declare-fun mul_n13 () FF0)
(declare-fun x1_n4 () FF0)
(declare-fun x0_n6 () FF0)
(assert 
  (let ((let0 x11))
  (let ((let1 x10))
  (let ((let2 x9))
  (let ((let3 x8))
  (let ((let4 x7))
  (let ((let5 x6))
  (let ((let6 x5))
  (let ((let7 x4))
  (let ((let8 x3))
  (let ((let9 x2))
  (let ((let10 x1))
  (let ((let11 x0))
  (let ((let12 (or let11 let10 let9 let8 let7 let6 let5 let4 let3 let2 let1 let0)))
  (let ((let13 return_n10))
  (let ((let14 (as ff1 FF0)))
  (let ((let15 (= let14 let13)))
  (let ((let16 (= let15 let12)))
  (let ((let17 (as ff0 FF0)))
  (let ((let18 (= let17 let13)))
  (let ((let19 (or let15 let18)))
  (let ((let20 (and let19 let16)))
  (let ((let21 (as ff52435875175126190479447740508185965837690552500527637822603658699938581184512 FF0)))
  (let ((let22 (ff.mul let13 let21)))
  (let ((let23 (ff.add let22 let14)))
  (let ((let24 x11_n3))
  (let ((let25 (ff.mul let24 let21)))
  (let ((let26 (ff.add let25 let14)))
  (let ((let27 mul_n22))
  (let ((let28 (ff.mul let27 let26)))
  (let ((let29 (= let28 let23)))
  (let ((let30 x10_n5))
  (let ((let31 (ff.mul let30 let21)))
  (let ((let32 (ff.add let31 let14)))
  (let ((let33 mul_n21))
  (let ((let34 (ff.mul let33 let32)))
  (let ((let35 (= let34 let27)))
  (let ((let36 x9_n12))
  (let ((let37 (ff.mul let36 let21)))
  (let ((let38 (ff.add let37 let14)))
  (let ((let39 mul_n20))
  (let ((let40 (ff.mul let39 let38)))
  (let ((let41 (= let40 let33)))
  (let ((let42 x8_n1))
  (let ((let43 (ff.mul let42 let21)))
  (let ((let44 (ff.add let43 let14)))
  (let ((let45 mul_n19))
  (let ((let46 (ff.mul let45 let44)))
  (let ((let47 (= let46 let39)))
  (let ((let48 x7_n7))
  (let ((let49 (ff.mul let48 let21)))
  (let ((let50 (ff.add let49 let14)))
  (let ((let51 mul_n18))
  (let ((let52 (ff.mul let51 let50)))
  (let ((let53 (= let52 let45)))
  (let ((let54 x6_n8))
  (let ((let55 (ff.mul let54 let21)))
  (let ((let56 (ff.add let55 let14)))
  (let ((let57 mul_n17))
  (let ((let58 (ff.mul let57 let56)))
  (let ((let59 (= let58 let51)))
  (let ((let60 x5_n0))
  (let ((let61 (ff.mul let60 let21)))
  (let ((let62 (ff.add let61 let14)))
  (let ((let63 mul_n16))
  (let ((let64 (ff.mul let63 let62)))
  (let ((let65 (= let64 let57)))
  (let ((let66 x4_n2))
  (let ((let67 (ff.mul let66 let21)))
  (let ((let68 (ff.add let67 let14)))
  (let ((let69 mul_n15))
  (let ((let70 (ff.mul let69 let68)))
  (let ((let71 (= let70 let63)))
  (let ((let72 x3_n9))
  (let ((let73 (ff.mul let72 let21)))
  (let ((let74 (ff.add let73 let14)))
  (let ((let75 mul_n14))
  (let ((let76 (ff.mul let75 let74)))
  (let ((let77 (= let76 let69)))
  (let ((let78 x2_n11))
  (let ((let79 (ff.mul let78 let21)))
  (let ((let80 (ff.add let79 let14)))
  (let ((let81 mul_n13))
  (let ((let82 (ff.mul let81 let80)))
  (let ((let83 (= let82 let75)))
  (let ((let84 x1_n4))
  (let ((let85 (ff.mul let84 let21)))
  (let ((let86 (ff.add let85 let14)))
  (let ((let87 x0_n6))
  (let ((let88 (ff.mul let87 let21)))
  (let ((let89 (ff.add let88 let14)))
  (let ((let90 (ff.mul let89 let86)))
  (let ((let91 (= let90 let81)))
  (let ((let92 (and let91 let83 let77 let71 let65 let59 let53 let47 let41 let35 let29)))
  (let ((let93 (ite let8 let14 let17)))
  (let ((let94 (= let72 let93)))
  (let ((let95 (ite let3 let14 let17)))
  (let ((let96 (= let42 let95)))
  (let ((let97 (ite let0 let14 let17)))
  (let ((let98 (= let24 let97)))
  (let ((let99 (ite let2 let14 let17)))
  (let ((let100 (= let36 let99)))
  (let ((let101 (ite let5 let14 let17)))
  (let ((let102 (= let54 let101)))
  (let ((let103 (ite let10 let14 let17)))
  (let ((let104 (= let84 let103)))
  (let ((let105 (ite let11 let14 let17)))
  (let ((let106 (= let87 let105)))
  (let ((let107 (ite let7 let14 let17)))
  (let ((let108 (= let66 let107)))
  (let ((let109 (ite let1 let14 let17)))
  (let ((let110 (= let30 let109)))
  (let ((let111 (ite let6 let14 let17)))
  (let ((let112 (= let60 let111)))
  (let ((let113 (ite let9 let14 let17)))
  (let ((let114 (= let78 let113)))
  (let ((let115 (ite let4 let14 let17)))
  (let ((let116 (= let48 let115)))
  (let ((let117 (and let116 let114 let112 let110 let108 let106 let104 let102 let100 let98 let96 let94)))
  (let ((let118 (and let117 let92)))
  (let ((let119 (=> let118 let20)))
  (let ((let120 (not let119)))
  let120
)))))))))))))))))))))))))))))))))))))))))))))))))))))))))))))))))))))))))))))))))))))))))))))))))))))))))))))))))))))))))
)
(check-sat)
